% Problema de las plantas de energia, datos de prueba.
% Autores:
%  * Alvaro Portocarrero.  1922171.
%  * Juan David Cabrera.   1924619.
%  * Karen Daniela Moreno. 1922373.

int: N = 3; % Numero de dias.
int: M = 2; % Numero de clientes.

float: G = 0.5; % Porcentaje minimo de MW entregable a un cliente al dia.

array [1..N, 1..M] of int: DEMANDA = 
 [| 100, 50 |
    75, 60 |
    150, 120 |];

array [1..M] of float: PRECIOXCLIENTE = [ 100.0, 80.0 ];

array [1..3] of float: COSTOXCENTRAL = [ 40.0, 20.0, 30.0 ];

array [1..3] of float: MAXXCENTRAL = [ 50.0, 50.0, 50.0 ];